problems/csplib-prob015/SchursLemma-models/noch/O2/lingeling/model_1_4-3-14-solution000001.solution
language Essence 1.3

letting boxes be partition({1, 6, 9}, {2, 7, 8, 13, 14}, {3, 4, 5, 10, 11, 12})
